104 300 251 157 296 105 101 178 98 20 131 275 33 76 258 20 19 177 147 138 194 289 169 85 164 235 216 264 218 104 159 176 259 109 85 255 213 185 184 11 256 67 37 40 142 46 59 212 223 257 49 116 246 269 252 161 255 219 124 173 22 282 48 281 91 132 287 55 68 222 117 23 288 154 63 181 251 173 92 173 130 192 40 127 161 291 287 115 261 163 39 283 144 87 15 286 270 53 41 38 26 157 112 14 62 174 